job_count = 24 ;
duration = [|36, 7, 11, 1|26, 12, 6, 6|28, 18, 6, 1|21, 4, 18, 5|33, 12, 2, 2|13, 21, 9, 4|38, 14, 15, 2|24, 19, 18, 7|25, 28, 15, 3|39, 28, 11, 5|16, 20, 7, 3|35, 10, 8, 6|10, 14, 4, 1|35, 22, 13, 5|38, 20, 19, 7|11, 17, 9, 9|13, 8, 7, 3|33, 3, 5, 2|12, 19, 14, 6|30, 6, 6, 1|16, 24, 12, 2|39, 16, 9, 6|4, 11, 13, 2|16, 6, 12, 9|] ;
machine_count = 4 ;
cost = [|15, 31, 34, 65|18, 38, 51, 57|15, 29, 44, 69|15, 38, 39, 48|15, 25, 56, 63|19, 32, 51, 72|14, 26, 55, 40|10, 35, 37, 77|19, 28, 44, 46|10, 20, 30, 57|16, 27, 31, 46|10, 34, 35, 65|13, 33, 50, 41|13, 28, 49, 56|10, 32, 32, 60|16, 39, 44, 57|17, 32, 54, 76|17, 36, 33, 73|10, 20, 55, 59|10, 35, 40, 77|16, 29, 46, 60|12, 36, 33, 53|17, 23, 46, 70|14, 22, 49, 69|] ;
deadline = [50, 50, 50, 50, 50, 50, 50, 50, 50, 50, 50, 50, 50, 50, 50, 50, 50, 50, 50, 50, 50, 50, 50, 50] ;
release = [0, 0, 0, 0, 0, 0, 0, 0, 0, 0, 0, 0, 0, 0, 0, 0, 0, 0, 0, 0, 0, 0, 0, 0] ;
resource = [|8, 8, 8, 8|6, 6, 6, 6|7, 7, 7, 7|1, 1, 1, 1|9, 9, 9, 9|4, 4, 4, 4|3, 3, 3, 3|5, 5, 5, 5|7, 7, 7, 7|4, 4, 4, 4|4, 4, 4, 4|5, 5, 5, 5|4, 4, 4, 4|1, 1, 1, 1|9, 9, 9, 9|9, 9, 9, 9|3, 3, 3, 3|1, 1, 1, 1|4, 4, 4, 4|9, 9, 9, 9|5, 5, 5, 5|9, 9, 9, 9|4, 4, 4, 4|2, 2, 2, 2|] ;
capacities = [10, 10, 10, 10] ;
